
Gurobi 9.0.0 (linux64) logging started Fri Feb  7 13:15:28 2020

Changed value of parameter LogFile to /home/hoale/Study/Code/logs/hybrid/hybrid-jss-milp-milp-job8_machine8_ds1.log
   Prev:   Default: 
Gurobi Optimizer version 9.0.0 build v9.0.0rc2 (linux64)
Optimize a model with 34 rows, 20 columns and 64 nonzeros
Model fingerprint: 0xa27e0f2f
Variable types: 8 continuous, 12 integer (12 binary)
Coefficient statistics:
  Matrix range     [1e+00, 2e+03]
  Objective range  [0e+00, 0e+00]
  Bounds range     [1e+00, 1e+00]
  RHS range        [1e+00, 2e+03]
Found heuristic solution: objective 0.0000000

Explored 0 nodes (0 simplex iterations) in 0.00 seconds
Thread count was 1 (of 8 available processors)

Solution count 1: 0 

Optimal solution found (tolerance 1.00e-04)
Best objective 0.000000000000e+00, best bound 0.000000000000e+00, gap 0.0000%
Warning: constraint name "assigned job release constraint[0]" has a space

Gurobi 9.0.0 (linux64) logging started Fri Feb  7 13:16:22 2020

Changed value of parameter LogFile to /home/hoale/Study/Code/logs/hybrid/hybrid-jss-milp-milp-job8_machine8_ds1.log
   Prev:   Default: 
Gurobi Optimizer version 9.0.0 build v9.0.0rc2 (linux64)
Optimize a model with 34 rows, 20 columns and 64 nonzeros
Model fingerprint: 0xa27e0f2f
Variable types: 8 continuous, 12 integer (12 binary)
Coefficient statistics:
  Matrix range     [1e+00, 2e+03]
  Objective range  [0e+00, 0e+00]
  Bounds range     [1e+00, 1e+00]
  RHS range        [1e+00, 2e+03]
Found heuristic solution: objective 0.0000000

Explored 0 nodes (0 simplex iterations) in 0.00 seconds
Thread count was 1 (of 8 available processors)

Solution count 1: 0 

Optimal solution found (tolerance 1.00e-04)
Best objective 0.000000000000e+00, best bound 0.000000000000e+00, gap 0.0000%
Warning: constraint name "assigned job release constraint[0]" has a space

Gurobi 9.0.0 (linux64) logging started Fri Feb  7 13:22:14 2020

Changed value of parameter LogFile to /home/hoale/Study/Code/logs/hybrid/hybrid-jss-milp-milp-job8_machine8_ds1.log
   Prev:   Default: 
Gurobi Optimizer version 9.0.0 build v9.0.0rc2 (linux64)
Optimize a model with 34 rows, 20 columns and 64 nonzeros
Model fingerprint: 0xa27e0f2f
Variable types: 8 continuous, 12 integer (12 binary)
Coefficient statistics:
  Matrix range     [1e+00, 2e+03]
  Objective range  [0e+00, 0e+00]
  Bounds range     [1e+00, 1e+00]
  RHS range        [1e+00, 2e+03]
Found heuristic solution: objective 0.0000000

Explored 0 nodes (0 simplex iterations) in 0.00 seconds
Thread count was 1 (of 8 available processors)

Solution count 1: 0 

Optimal solution found (tolerance 1.00e-04)
Best objective 0.000000000000e+00, best bound 0.000000000000e+00, gap 0.0000%
Warning: constraint name "assigned job release constraint[0]" has a space

Gurobi 9.0.0 (linux64) logging started Fri 07 Feb 2020 01:22:38 PM CET

Changed value of parameter LogFile to /home/hoale/Study/Code/logs/hybrid/hybrid-jss-milp-milp-job8_machine8_ds1.log
   Prev:   Default: 
Gurobi Optimizer version 9.0.0 build v9.0.0rc2 (linux64)
Optimize a model with 34 rows, 20 columns and 64 nonzeros
Model fingerprint: 0xa27e0f2f
Variable types: 8 continuous, 12 integer (12 binary)
Coefficient statistics:
  Matrix range     [1e+00, 2e+03]
  Objective range  [0e+00, 0e+00]
  Bounds range     [1e+00, 1e+00]
  RHS range        [1e+00, 2e+03]
Found heuristic solution: objective 0.0000000

Explored 0 nodes (0 simplex iterations) in 0.00 seconds
Thread count was 1 (of 8 available processors)

Solution count 1: 0 

Optimal solution found (tolerance 1.00e-04)
Best objective 0.000000000000e+00, best bound 0.000000000000e+00, gap 0.0000%
Warning: constraint name "assigned job release constraint[0]" has a space

Gurobi 9.0.0 (linux64) logging started Fri 07 Feb 2020 01:26:02 PM CET

Changed value of parameter LogFile to /home/hoale/Study/Code/logs/hybrid/hybrid-jss-milp-milp-job8_machine8_ds1.log
   Prev:   Default: 
Gurobi Optimizer version 9.0.0 build v9.0.0rc2 (linux64)
Optimize a model with 34 rows, 20 columns and 64 nonzeros
Model fingerprint: 0xa27e0f2f
Variable types: 8 continuous, 12 integer (12 binary)
Coefficient statistics:
  Matrix range     [1e+00, 2e+03]
  Objective range  [0e+00, 0e+00]
  Bounds range     [1e+00, 1e+00]
  RHS range        [1e+00, 2e+03]
Found heuristic solution: objective 0.0000000

Explored 0 nodes (0 simplex iterations) in 0.00 seconds
Thread count was 1 (of 8 available processors)

Solution count 1: 0 

Optimal solution found (tolerance 1.00e-04)
Best objective 0.000000000000e+00, best bound 0.000000000000e+00, gap 0.0000%

Gurobi 9.0.0 (linux64) logging started Fri 07 Feb 2020 01:26:24 PM CET

Changed value of parameter LogFile to /home/hoale/Study/Code/logs/hybrid/hybrid-jss-milp-milp-job8_machine8_ds1.log
   Prev:   Default: 
Gurobi Optimizer version 9.0.0 build v9.0.0rc2 (linux64)
Optimize a model with 34 rows, 20 columns and 64 nonzeros
Model fingerprint: 0xa27e0f2f
Variable types: 8 continuous, 12 integer (12 binary)
Coefficient statistics:
  Matrix range     [1e+00, 2e+03]
  Objective range  [0e+00, 0e+00]
  Bounds range     [1e+00, 1e+00]
  RHS range        [1e+00, 2e+03]
Found heuristic solution: objective 0.0000000

Explored 0 nodes (0 simplex iterations) in 0.00 seconds
Thread count was 1 (of 8 available processors)

Solution count 1: 0 

Optimal solution found (tolerance 1.00e-04)
Best objective 0.000000000000e+00, best bound 0.000000000000e+00, gap 0.0000%
Warning: constraint name "assigned job release constraint[0]" has a space

Gurobi 9.0.0 (linux64) logging started Fri 07 Feb 2020 01:27:22 PM CET

Changed value of parameter LogFile to /home/hoale/Study/Code/logs/hybrid/hybrid-jss-milp-milp-job8_machine8_ds1.log
   Prev:   Default: 
Gurobi Optimizer version 9.0.0 build v9.0.0rc2 (linux64)
Optimize a model with 34 rows, 20 columns and 64 nonzeros
Model fingerprint: 0xa27e0f2f
Variable types: 8 continuous, 12 integer (12 binary)
Coefficient statistics:
  Matrix range     [1e+00, 2e+03]
  Objective range  [0e+00, 0e+00]
  Bounds range     [1e+00, 1e+00]
  RHS range        [1e+00, 2e+03]
Found heuristic solution: objective 0.0000000

Explored 0 nodes (0 simplex iterations) in 0.00 seconds
Thread count was 1 (of 8 available processors)

Solution count 1: 0 

Optimal solution found (tolerance 1.00e-04)
Best objective 0.000000000000e+00, best bound 0.000000000000e+00, gap 0.0000%
Warning: constraint name "assigned job release constraint[0]" has a space

Gurobi 9.0.0 (linux64) logging started Fri 07 Feb 2020 01:27:44 PM CET

Changed value of parameter LogFile to /home/hoale/Study/Code/logs/hybrid/hybrid-jss-milp-milp-job8_machine8_ds1.log
   Prev:   Default: 
Gurobi Optimizer version 9.0.0 build v9.0.0rc2 (linux64)
Optimize a model with 34 rows, 20 columns and 64 nonzeros
Model fingerprint: 0xa27e0f2f
Variable types: 8 continuous, 12 integer (12 binary)
Coefficient statistics:
  Matrix range     [1e+00, 2e+03]
  Objective range  [0e+00, 0e+00]
  Bounds range     [1e+00, 1e+00]
  RHS range        [1e+00, 2e+03]
Found heuristic solution: objective 0.0000000

Explored 0 nodes (0 simplex iterations) in 0.01 seconds
Thread count was 1 (of 8 available processors)

Solution count 1: 0 

Optimal solution found (tolerance 1.00e-04)
Best objective 0.000000000000e+00, best bound 0.000000000000e+00, gap 0.0000%
Warning: constraint name "assigned job release constraint[0]" has a space

Gurobi 9.0.0 (linux64) logging started Fri 07 Feb 2020 01:28:39 PM CET

Changed value of parameter LogFile to /home/hoale/Study/Code/logs/hybrid/hybrid-jss-milp-milp-job8_machine8_ds1.log
   Prev:   Default: 
Gurobi Optimizer version 9.0.0 build v9.0.0rc2 (linux64)
Optimize a model with 34 rows, 20 columns and 64 nonzeros
Model fingerprint: 0xa27e0f2f
Variable types: 8 continuous, 12 integer (12 binary)
Coefficient statistics:
  Matrix range     [1e+00, 2e+03]
  Objective range  [0e+00, 0e+00]
  Bounds range     [1e+00, 1e+00]
  RHS range        [1e+00, 2e+03]
Found heuristic solution: objective 0.0000000

Explored 0 nodes (0 simplex iterations) in 0.00 seconds
Thread count was 1 (of 8 available processors)

Solution count 1: 0 

Optimal solution found (tolerance 1.00e-04)
Best objective 0.000000000000e+00, best bound 0.000000000000e+00, gap 0.0000%
Warning: constraint name "assigned job release constraint[0]" has a space

Gurobi 9.0.0 (linux64) logging started Fri 07 Feb 2020 01:30:53 PM CET

Changed value of parameter LogFile to /home/hoale/Study/Code/logs/hybrid/hybrid-jss-milp-milp-job8_machine8_ds1.log
   Prev:   Default: 
Gurobi Optimizer version 9.0.0 build v9.0.0rc2 (linux64)
Optimize a model with 34 rows, 20 columns and 64 nonzeros
Model fingerprint: 0xa27e0f2f
Variable types: 8 continuous, 12 integer (12 binary)
Coefficient statistics:
  Matrix range     [1e+00, 2e+03]
  Objective range  [0e+00, 0e+00]
  Bounds range     [1e+00, 1e+00]
  RHS range        [1e+00, 2e+03]
Found heuristic solution: objective 0.0000000

Explored 0 nodes (0 simplex iterations) in 0.00 seconds
Thread count was 1 (of 8 available processors)

Solution count 1: 0 

Optimal solution found (tolerance 1.00e-04)
Best objective 0.000000000000e+00, best bound 0.000000000000e+00, gap 0.0000%
Warning: constraint name "assigned job release constraint[0]" has a space
